% seed = 7284904

mint = 36;
% maxt = 109;

nActs = 22;
dur = [0,1,10,5,3,1,5,6,6,8,2,7,7,2,9,7,7,3,7,10,3,0];

nSkills = 4;
sreq = [| 0,0,0,0,
	| 0,1,2,0,
	| 0,0,2,1,
	| 1,0,0,2,
	| 0,1,3,0,
	| 0,0,3,2,
	| 0,0,2,1,
	| 0,0,3,1,
	| 0,0,2,2,
	| 1,0,2,0,
	| 3,0,0,1,
	| 0,0,2,3,
	| 0,0,2,2,
	| 0,0,1,2,
	| 0,0,1,1,
	| 0,2,0,2,
	| 3,0,3,0,
	| 3,0,0,2,
	| 0,3,3,0,
	| 3,0,0,2,
	| 0,1,3,0,
	| 0,0,0,0, |];

nResources = 10;
mastery = [| false,false,true,true,
	| true,true,true,false,
	| true,false,false,true,
	| false,true,false,false,
	| true,true,false,false,
	| false,true,false,false,
	| true,false,false,false,
	| false,true,false,false,
	| true,false,true,false,
	| false,false,true,true, |];

nPrecs = 43;
pred = [1,1,1,2,2,2,3,3,3,4,4,4,5,5,5,6,6,6,7,7,7,8,8,8,9,9,10,10,10,11,12,12,13,14,14,15,15,16,17,18,19,20,21];
succ = [2,3,4,12,7,8,5,15,8,6,7,8,17,9,11,10,20,14,9,15,16,19,13,16,20,21,18,11,21,12,19,13,21,17,16,17,20,18,18,19,22,22,22];

nUnrels = 87;
unpred = [2,2,2,2,2,2,2,3,3,3,3,3,4,5,5,5,5,5,5,5,6,6,6,6,7,7,7,7,7,7,8,8,8,8,8,8,8,8,9,9,9,9,9,9,9,9,9,9,10,10,10,10,10,11,11,11,11,11,11,12,12,12,12,12,12,13,13,13,13,13,13,13,14,14,14,15,15,16,16,16,17,17,18,18,19,19,20];
unsucc = [3,4,5,6,10,11,14,4,6,7,10,14,5,6,7,8,10,14,15,16,7,8,9,15,8,10,11,12,13,14,9,10,11,12,14,15,17,20,10,11,12,13,14,15,16,17,18,19,14,15,16,17,20,14,15,16,17,18,20,14,15,16,17,18,20,14,15,16,17,18,19,20,15,20,21,16,21,17,20,21,20,21,20,21,20,21,21];

USEFUL_RES = [{},
	{1,2,4,5,6,8,9,10},
	{1,2,3,9,10},
	{1,2,3,5,7,9,10},
	{1,2,4,5,6,8,9,10},
	{1,2,3,9,10},
	{1,2,3,9,10},
	{1,2,3,9,10},
	{1,2,3,9,10},
	{1,2,3,5,7,9,10},
	{1,2,3,5,7,9,10},
	{1,2,3,9,10},
	{1,2,3,9,10},
	{1,2,3,9,10},
	{1,2,3,9,10},
	{1,2,3,4,5,6,8,10},
	{1,2,3,5,7,9,10},
	{1,2,3,5,7,9,10},
	{1,2,4,5,6,8,9,10},
	{1,2,3,5,7,9,10},
	{1,2,4,5,6,8,9,10},
	{}];

POTENTIAL_ACT = [{2,3,4,5,6,7,8,9,10,11,12,13,14,15,16,17,18,19,20,21},
	{2,3,4,5,6,7,8,9,10,11,12,13,14,15,16,17,18,19,20,21},
	{3,4,6,7,8,9,10,11,12,13,14,15,16,17,18,20},
	{2,5,16,19,21},
	{2,4,5,10,11,16,17,18,19,20,21},
	{2,5,16,19,21},
	{4,10,11,17,18,20},
	{2,5,16,19,21},
	{2,3,4,5,6,7,8,9,10,11,12,13,14,15,17,18,19,20,21},
	{2,3,4,5,6,7,8,9,10,11,12,13,14,15,16,17,18,19,20,21}];
